(set-logic QF_FPBV)
(set-option :produce-models true)
(set-info :source |Random FP created by PyMPF|)
(set-info :category random)
(set-info :status sat)
;; fp.from.ubv(BitVec 64)
(declare-const x (_ BitVec 64))
(assert (bvsge x #b1111010100011011111010001100111011010101110111100101101101110010))
;; x should be -784777734996993166
(declare-const r Float16)
(assert (= r ((_ to_fp 5 11) RNA x)))
(assert (fp.geq r (_ -oo 5 11)))
(check-sat)
(exit)
